
  32    4
  10   10   10   10

   0   0   0   0   0   3 2 30 31 
   9   1   0   1   2   1 3 
   6   3   1   6   0   2 23 4 
   4   3   0   4   3   2 16 5 
   5   2   0   5  10   2 29 6 
   8   0   5   5   1   1 7 
   4   0   6   4   3   3 28 11 8 
   3   4   3   0   4   3 27 15 9 
  10   2   0   3   8   2 19 10 
   8   6   3   5   0   2 26 12 
   8   2   6   5   0   2 27 15 
   9   3   5   1   0   1 13 
  10   3   6   0   2   1 14 
   1   0   4   6   5   1 17 
   1   0   3   6   2   1 17 
   4   5   3   0   5   1 17 
   9   9   3   0   7   1 18 
   8   0   3   5   2   1 20 
   1   4   4   0   5   1 20 
   8   7   0   3   2   1 21 
   2   5   0   4   3   2 24 22 
   4   0   3   2   3   1 25 
   9   2   6   3   0   1 24 
   7   6   4   4   0   1 32
   9   3   4   0   7   1 32
   9   3   5   4   0   1 32
   8   0   6   3   2   1 32
   2   0   4   6   5   1 32
   9   4   0   5   3   1 32
   1   0   2   2   4   1 32
   9   7   3   0   4   1 32
   0   0   0   0   0   0 
